% seed = 0

mint = 33;
% maxt = 139;

nActs = 62;
dur = [0,1,4,2,1,4,2,2,3,3,4,2,2,1,1,3,3,4,3,1,1,2,1,1,1,1,3,3,2,4,2,1,2,4,3,2,3,4,3,2,2,3,3,1,5,3,2,3,3,3,1,1,4,2,3,1,1,3,2,1,1,0];

nSkills = 12;
sreq = [| 0,0,0,0,0,0,0,0,0,0,0,0,
	| 0,0,1,0,0,0,0,0,0,0,0,0,
	| 0,1,0,0,0,0,0,0,0,0,0,0,
	| 0,0,0,0,0,2,0,0,0,0,0,0,
	| 0,0,1,1,1,0,0,0,0,0,1,0,
	| 0,0,0,0,0,0,0,0,0,0,1,0,
	| 0,0,0,0,1,0,0,1,1,0,1,0,
	| 0,0,0,0,0,0,1,0,0,1,0,0,
	| 0,1,0,0,0,0,0,0,0,0,1,0,
	| 0,1,0,1,0,0,0,0,0,1,1,0,
	| 0,1,1,0,0,1,0,1,0,0,0,0,
	| 0,0,0,0,1,1,0,0,1,0,1,0,
	| 0,0,1,0,0,0,0,0,0,0,1,0,
	| 0,0,0,1,0,0,0,0,1,0,0,0,
	| 0,0,0,0,0,1,0,0,0,0,1,0,
	| 0,0,0,0,0,0,0,0,0,0,1,0,
	| 0,1,0,1,0,1,0,0,0,0,1,0,
	| 0,0,0,0,0,0,0,0,0,1,0,0,
	| 0,1,0,1,0,1,0,0,0,1,0,0,
	| 0,0,0,0,1,0,0,0,0,1,0,0,
	| 0,0,1,0,0,0,0,1,0,0,0,0,
	| 0,0,0,0,0,1,0,0,0,0,0,0,
	| 0,0,1,0,0,1,0,0,0,0,1,0,
	| 0,1,0,1,0,0,0,0,0,0,1,0,
	| 0,1,0,0,0,1,0,0,0,0,1,0,
	| 0,0,0,0,0,1,0,0,0,0,1,0,
	| 0,0,0,0,0,0,0,0,1,0,0,0,
	| 1,0,1,0,1,0,0,0,0,0,0,0,
	| 0,0,1,1,0,0,0,0,0,1,1,0,
	| 0,1,0,1,0,1,0,0,0,0,0,0,
	| 1,0,0,0,0,0,0,0,0,0,1,0,
	| 0,1,0,0,0,2,0,0,0,0,0,0,
	| 0,1,0,0,0,0,0,0,1,0,0,0,
	| 1,0,1,0,0,0,0,0,0,0,1,1,
	| 0,0,1,0,0,0,0,0,0,0,1,0,
	| 0,0,0,0,1,0,0,0,0,0,1,0,
	| 0,0,0,0,0,1,0,1,1,0,0,0,
	| 0,0,0,0,0,1,0,0,0,0,0,0,
	| 0,1,1,0,0,1,0,0,0,0,1,0,
	| 1,0,1,0,0,0,0,1,0,0,0,0,
	| 0,0,0,0,0,1,0,0,0,0,0,0,
	| 0,0,0,0,0,0,0,0,1,2,0,0,
	| 0,0,1,0,0,0,0,0,0,0,1,0,
	| 0,0,1,0,0,0,0,0,0,1,0,0,
	| 1,1,0,0,0,0,0,0,0,0,2,0,
	| 0,0,1,1,0,1,0,0,0,0,1,0,
	| 0,0,0,0,0,0,0,1,1,0,1,0,
	| 0,0,0,0,0,0,0,0,0,1,0,0,
	| 0,0,0,0,0,1,0,1,0,1,1,0,
	| 0,1,0,0,1,1,0,0,1,0,0,0,
	| 0,1,0,0,0,1,0,0,0,0,0,0,
	| 1,0,0,0,0,0,0,1,0,0,1,0,
	| 0,0,0,0,0,0,0,0,1,0,0,0,
	| 0,0,0,0,0,0,0,1,0,0,0,0,
	| 0,2,0,0,0,0,0,0,1,0,1,0,
	| 0,1,0,0,0,1,0,0,0,0,1,0,
	| 0,1,0,0,0,0,0,0,1,0,0,0,
	| 0,0,0,0,0,2,0,0,0,0,0,0,
	| 0,0,0,0,0,0,0,0,0,1,0,0,
	| 0,0,1,0,0,0,0,0,0,0,0,0,
	| 0,0,0,0,0,0,0,1,1,1,1,0,
	| 0,0,0,0,0,0,0,0,0,0,0,0, |];

% SumOfsreq = 150;

nResources = 14;
mastery = [| false,false,false,false,false,false,false,false,false,false,true,true,
	| true,true,true,false,false,false,false,false,false,false,false,true,
	| false,false,false,false,false,true,false,false,false,false,false,false,
	| false,false,false,false,false,false,false,true,true,false,false,false,
	| false,true,true,false,false,false,false,false,false,false,false,false,
	| false,false,false,false,false,true,true,true,true,true,true,true,
	| false,true,true,false,false,false,false,false,false,false,false,false,
	| false,false,false,false,false,false,false,false,false,true,true,true,
	| false,false,true,true,true,true,false,true,true,false,false,false,
	| false,false,false,true,true,true,false,false,true,true,true,true,
	| false,false,false,false,false,false,false,false,false,true,true,true,
	| false,false,false,false,false,true,false,false,false,false,false,true,
	| false,false,false,true,true,true,false,false,false,false,false,false,
	| false,false,false,false,true,true,false,false,false,false,false,false, |];

nPrecs = 131;
pred = [1,1,1,2,2,2,3,3,3,4,4,4,5,5,5,6,6,7,7,7,8,8,8,9,9,9,10,10,11,11,11,12,12,12,13,13,13,14,14,15,15,15,16,17,17,17,18,18,18,19,19,19,20,20,20,21,22,22,22,23,23,23,24,24,24,25,25,25,26,26,26,27,27,28,28,28,29,29,30,30,31,31,32,33,34,34,34,35,35,35,36,36,36,37,38,38,39,39,39,40,40,41,41,41,42,42,43,43,44,44,45,45,46,46,47,48,49,49,50,51,52,53,54,55,56,56,57,58,59,60,61];
succ = [2,3,4,34,5,39,33,29,6,9,25,8,11,21,7,25,30,26,36,32,12,13,23,10,19,14,27,28,20,29,16,17,15,24,45,35,21,51,36,18,35,44,23,53,22,48,43,39,31,28,21,22,22,47,40,50,43,37,59,26,38,31,41,34,58,27,39,31,42,27,50,44,55,35,30,47,41,37,51,32,49,58,50,46,42,36,44,49,43,40,52,37,56,54,41,56,56,45,40,60,55,42,45,48,57,54,58,51,46,48,49,46,52,47,59,61,53,54,53,52,57,55,61,59,57,60,61,60,62,62,62];

nUnrels = 968;
unpred = [2,2,2,2,2,2,2,2,2,2,2,2,2,2,2,2,2,2,2,3,3,3,3,3,3,3,3,3,3,3,3,3,3,3,3,3,3,3,3,3,3,3,3,3,3,3,4,4,4,4,4,4,4,4,5,5,5,5,5,5,5,5,5,5,5,5,5,5,5,5,5,5,5,6,6,6,6,6,6,6,6,6,6,6,6,6,6,6,6,6,6,6,6,6,6,6,6,6,6,6,6,6,6,7,7,7,7,7,7,7,7,7,7,7,7,7,7,7,7,7,7,7,7,7,7,7,7,7,7,7,7,7,7,7,7,7,7,8,8,8,8,8,8,8,8,8,8,8,8,8,9,9,9,9,9,9,9,9,9,9,9,9,9,9,9,9,9,9,9,9,9,10,10,10,10,10,10,10,10,10,10,10,10,10,10,10,10,10,10,10,10,10,10,10,10,10,10,10,10,11,11,11,11,11,11,11,11,11,11,11,11,11,11,11,11,11,11,12,12,12,12,12,12,12,12,12,12,12,12,12,12,12,12,12,13,13,13,13,13,13,13,13,13,13,13,13,13,13,13,13,13,13,13,13,13,13,13,13,13,13,13,13,13,14,14,14,14,14,14,14,14,14,14,14,14,14,14,14,14,14,14,14,14,14,14,14,14,14,14,14,14,14,14,14,14,14,14,14,14,14,14,15,15,15,15,15,15,15,15,15,15,15,15,15,15,15,15,15,15,15,15,15,15,15,16,16,16,16,16,16,16,16,16,16,16,16,16,16,16,16,16,16,16,16,16,17,17,17,17,17,17,17,17,17,17,17,17,17,17,17,17,17,17,17,17,17,17,17,17,17,17,17,17,17,17,18,18,18,18,18,18,18,18,18,18,18,18,18,18,18,18,18,18,18,18,18,18,18,18,19,19,19,19,19,19,19,19,19,19,19,19,19,19,19,19,19,19,19,19,20,20,20,20,20,20,20,20,20,20,20,20,20,20,20,20,20,20,20,20,20,20,20,20,20,20,20,21,21,21,21,21,21,21,21,21,21,21,21,21,21,21,21,21,21,21,21,21,21,21,21,21,21,21,21,21,21,21,21,21,21,21,21,22,22,22,22,22,22,22,22,22,22,22,22,22,22,22,22,22,22,22,22,22,22,22,22,22,22,22,22,22,23,23,23,23,23,23,23,23,23,23,23,23,23,23,23,24,24,24,24,24,24,24,24,24,24,24,24,24,24,24,24,25,25,25,25,25,25,25,25,25,25,25,25,25,25,25,25,26,26,26,26,26,26,26,26,26,26,26,26,26,26,26,26,26,26,26,26,26,27,27,27,27,27,27,27,27,27,27,27,27,27,27,27,27,27,27,27,27,27,27,27,27,27,28,28,28,28,28,28,28,28,28,28,28,28,28,28,28,29,29,29,29,29,29,29,29,29,29,29,29,29,29,29,29,29,30,30,30,30,30,30,30,30,30,30,30,30,30,30,30,30,30,30,30,30,30,30,31,31,31,31,31,31,31,31,31,31,31,31,31,31,31,31,31,31,31,31,31,31,32,32,32,32,32,32,32,32,32,32,32,32,32,32,32,32,32,32,32,32,32,32,32,32,32,33,33,33,33,33,33,33,33,33,33,33,33,33,33,33,33,33,33,33,33,33,33,34,34,34,34,34,34,34,34,34,34,34,34,34,35,35,35,35,35,35,35,35,35,35,35,35,35,36,36,36,36,36,36,36,36,36,36,36,36,36,36,36,36,36,36,37,37,37,37,37,37,37,37,37,37,37,37,37,37,37,37,37,37,37,37,37,37,38,38,38,38,38,38,38,39,39,39,39,39,39,39,39,40,40,40,40,40,40,40,40,40,40,40,40,40,40,40,40,40,40,41,41,41,41,41,41,41,42,42,42,42,42,42,42,42,42,42,42,42,42,42,42,42,43,43,43,43,43,43,43,43,43,43,43,43,44,44,44,44,44,44,44,44,44,44,45,45,45,45,45,45,46,46,46,46,46,46,46,46,46,46,47,47,47,47,47,47,47,47,47,47,47,47,47,48,48,48,48,48,48,48,48,48,48,48,48,49,49,49,49,49,49,49,50,50,50,50,50,50,50,50,51,51,51,51,51,51,51,52,52,52,52,52,52,52,53,53,53,53,53,53,54,54,54,54,54,54,55,55,55,55,55,56,56,57,57,57,58,58,59,59,60];
unsucc = [3,4,6,8,9,10,12,13,14,15,17,18,19,24,25,28,30,33,35,4,5,7,8,9,10,11,12,13,14,15,16,17,18,19,20,21,22,23,24,26,28,34,35,36,38,43,5,6,7,11,16,20,29,33,6,8,9,10,12,13,14,15,17,18,19,24,25,28,30,33,34,35,39,7,8,9,10,11,12,13,14,15,16,17,18,19,20,21,22,23,24,26,28,29,33,34,35,36,37,38,41,42,43,8,9,10,11,12,13,14,15,16,17,18,19,20,21,22,23,24,25,28,29,30,31,33,34,35,38,39,40,41,43,45,49,51,58,9,10,11,14,16,19,20,25,28,29,30,32,33,11,12,13,15,16,17,18,20,23,24,25,26,29,31,33,34,38,39,41,42,45,11,12,13,14,15,16,17,18,19,20,21,22,23,24,25,26,29,31,33,34,36,37,38,39,41,42,45,56,12,13,14,15,17,18,19,21,24,25,28,30,32,33,34,35,36,39,13,14,16,19,20,21,23,25,26,27,28,29,30,32,33,38,50,14,15,16,17,18,19,20,22,23,24,25,26,27,28,29,30,31,32,33,34,36,37,38,39,41,42,44,48,56,15,16,17,18,19,20,21,22,23,24,25,26,27,28,29,30,31,32,33,34,35,38,39,40,41,42,43,44,45,46,47,48,49,50,53,55,58,59,16,17,19,20,21,22,23,24,25,26,27,28,29,30,32,33,34,36,37,38,41,42,50,17,18,19,20,21,22,24,25,28,29,30,32,33,34,35,36,37,39,40,43,51,18,19,20,21,23,24,25,26,27,28,29,30,31,32,33,34,35,36,38,39,40,41,42,44,45,46,47,49,50,56,19,20,21,22,23,24,25,26,27,28,29,30,32,33,34,35,36,37,38,41,42,44,48,50,20,23,24,25,26,27,29,31,33,34,36,38,39,41,42,44,45,46,48,56,21,23,24,25,26,27,28,29,30,31,32,33,34,35,36,38,39,41,42,44,45,46,48,49,50,53,56,22,23,24,25,26,27,28,29,30,31,32,33,34,35,36,37,38,39,40,41,42,43,44,45,46,47,48,49,51,52,54,56,57,58,60,61,23,24,25,26,27,28,29,30,31,32,33,34,35,36,38,39,40,41,42,44,45,46,47,48,49,50,53,55,56,24,25,28,29,30,32,33,34,35,36,37,39,40,43,51,25,26,27,28,29,30,31,32,33,35,38,39,40,43,50,51,26,28,29,30,32,33,34,35,36,37,38,41,42,43,50,51,28,29,30,31,32,33,34,35,36,37,38,39,40,41,43,45,49,51,56,58,60,28,29,30,31,32,33,34,35,36,37,38,39,40,41,42,43,45,49,50,51,53,54,56,58,60,29,31,33,34,36,37,38,39,41,42,44,45,46,48,56,30,31,32,33,34,35,36,38,39,40,43,44,50,51,56,58,60,31,33,34,35,36,37,38,39,40,41,42,43,44,45,46,47,48,49,54,56,58,60,32,33,34,35,36,37,38,39,40,41,42,43,44,45,46,47,48,50,51,52,56,57,33,34,35,36,37,38,39,40,41,42,43,44,45,46,47,48,49,51,52,54,56,57,58,60,61,34,35,36,37,38,39,40,41,42,43,44,45,48,49,50,51,53,54,55,56,58,60,35,38,39,40,41,43,45,49,50,51,53,55,58,36,37,38,39,41,42,44,45,46,47,48,50,56,38,39,40,41,42,43,44,45,46,47,48,49,50,51,53,55,58,59,38,39,40,41,42,43,44,45,46,47,48,49,50,51,52,53,55,56,57,58,59,60,39,40,43,44,50,51,58,41,42,43,44,48,50,51,58,41,42,43,44,45,46,47,48,49,50,51,52,53,54,56,57,58,61,43,44,50,51,56,58,60,43,44,45,46,47,48,49,50,51,52,53,55,56,58,59,60,44,45,46,47,48,49,50,53,54,55,56,59,45,49,50,51,53,54,55,56,58,60,48,50,51,56,58,60,48,49,50,51,53,54,55,56,58,60,48,49,50,51,52,53,54,55,56,57,58,60,61,49,50,51,52,53,54,55,56,57,58,59,60,50,51,52,56,57,58,60,51,52,54,56,57,58,60,61,53,54,55,56,58,59,60,53,54,55,56,58,59,60,54,56,57,58,60,61,55,56,57,58,59,60,56,57,58,60,61,58,59,58,59,60,59,61,60,61,61];

USEFUL_RES = [{},
	{2,5,7,9},
	{2,5,7},
	{3,6,9,10,12,13,14},
	{1,2,5,6,7,8,9,10,11,13,14},
	{1,6,8,10,11},
	{1,4,6,8,9,10,11,13,14},
	{6,8,10,11},
	{1,2,5,6,7,8,10,11},
	{1,2,5,6,7,8,9,10,11,13},
	{2,3,4,5,6,7,9,10,12,13,14},
	{1,3,4,6,8,9,10,11,12,13,14},
	{1,2,5,6,7,8,9,10,11},
	{4,6,9,10,13},
	{1,3,6,8,9,10,11,12,13,14},
	{1,6,8,10,11},
	{1,2,3,5,6,7,8,9,10,11,12,13,14},
	{6,8,10,11},
	{2,3,5,6,7,8,9,10,11,12,13,14},
	{6,8,9,10,11,13,14},
	{2,4,5,6,7,9},
	{3,6,9,10,12,13,14},
	{1,2,3,5,6,7,8,9,10,11,12,13,14},
	{1,2,5,6,7,8,9,10,11,13},
	{1,2,3,5,6,7,8,9,10,11,12,13,14},
	{1,3,6,8,9,10,11,12,13,14},
	{4,6,9,10},
	{2,5,7,9,10,13,14},
	{1,2,5,6,7,8,9,10,11,13},
	{2,3,5,6,7,9,10,12,13,14},
	{1,2,6,8,10,11},
	{2,3,5,6,7,9,10,12,13,14},
	{2,4,5,6,7,9,10},
	{1,2,5,6,7,8,9,10,11,12},
	{1,2,5,6,7,8,9,10,11},
	{1,6,8,9,10,11,13,14},
	{3,4,6,9,10,12,13,14},
	{3,6,9,10,12,13,14},
	{1,2,3,5,6,7,8,9,10,11,12,13,14},
	{2,4,5,6,7,9},
	{3,6,9,10,12,13,14},
	{4,6,8,9,10,11},
	{1,2,5,6,7,8,9,10,11},
	{2,5,6,7,8,9,10,11},
	{1,2,5,6,7,8,10,11},
	{1,2,3,5,6,7,8,9,10,11,12,13,14},
	{1,4,6,8,9,10,11},
	{6,8,10,11},
	{1,3,4,6,8,9,10,11,12,13,14},
	{2,3,4,5,6,7,9,10,12,13,14},
	{2,3,5,6,7,9,10,12,13,14},
	{1,2,4,6,8,9,10,11},
	{4,6,9,10},
	{4,6,9},
	{1,2,4,5,6,7,8,9,10,11},
	{1,2,3,5,6,7,8,9,10,11,12,13,14},
	{2,4,5,6,7,9,10},
	{3,6,9,10,12,13,14},
	{6,8,10,11},
	{2,5,7,9},
	{1,4,6,8,9,10,11},
	{}];

POTENTIAL_ACT = [{5,6,7,9,10,12,13,15,16,17,23,24,25,26,29,31,34,35,36,39,43,45,46,47,49,52,55,56,61},
	{2,3,5,9,10,11,13,17,19,21,23,24,25,28,29,30,31,32,33,34,35,39,40,43,44,45,46,50,51,52,55,56,57,60},
	{4,11,12,15,17,19,22,23,25,26,30,32,37,38,39,41,46,49,50,51,56,58},
	{7,11,12,14,21,27,33,37,40,42,47,49,50,52,53,54,55,57,61},
	{2,3,5,9,10,11,13,17,19,21,23,24,25,28,29,30,32,33,34,35,39,40,43,44,45,46,50,51,55,56,57,60},
	{4,5,6,7,8,9,10,11,12,13,14,15,16,17,18,19,20,21,22,23,24,25,26,27,29,30,31,32,33,34,35,36,37,38,39,40,41,42,43,44,45,46,47,48,49,50,51,52,53,54,55,56,57,58,59,61},
	{2,3,5,9,10,11,13,17,19,21,23,24,25,28,29,30,32,33,34,35,39,40,43,44,45,46,50,51,55,56,57,60},
	{5,6,7,8,9,10,12,13,15,16,17,18,19,20,23,24,25,26,29,31,34,35,36,39,42,43,44,45,46,47,48,49,52,55,56,59,61},
	{2,4,5,7,10,11,12,13,14,15,17,19,20,21,22,23,24,25,26,27,28,29,30,32,33,34,35,36,37,38,39,40,41,42,43,44,46,47,49,50,51,52,53,54,55,56,57,58,60,61},
	{4,5,6,7,8,9,10,11,12,13,14,15,16,17,18,19,20,22,23,24,25,26,27,28,29,30,31,32,33,34,35,36,37,38,39,41,42,43,44,45,46,47,48,49,50,51,52,53,55,56,57,58,59,61},
	{5,6,7,8,9,10,12,13,15,16,17,18,19,20,23,24,25,26,29,31,34,35,36,39,42,43,44,45,46,47,48,49,52,55,56,59,61},
	{4,11,12,15,17,19,22,23,25,26,30,32,34,37,38,39,41,46,49,50,51,56,58},
	{4,5,7,10,11,12,14,15,17,19,20,22,23,24,25,26,28,29,30,32,36,37,38,39,41,46,49,50,51,56,58},
	{4,5,7,11,12,15,17,19,20,22,23,25,26,28,30,32,36,37,38,39,41,46,49,50,51,56,58}];
